NAME          ClpDefau  FREE
ROWS
 N  OBJROW
 L  ZMUNI1_PCT
 L  ZMUNI2_PCT
 L  ZMUNI3_PCT
 L  ZMUNI4_PCT
 L  ZMUNI5_PCT
 L  ZMUNI6_PCT
 L  ZMUNI7_PCT
 L  ZMUNI8_PCT
 L  ZMUNI9_PCT
COLUMNS
    QMUNI1 OBJROW 1.          
    QMUNI1 ZMUNI1_PCT 29569.8166  
    QMUNI1 ZMUNI2_PCT 1764.1068   
    QMUNI1 ZMUNI3_PCT 4178.6194   
    QMUNI1 ZMUNI4_PCT 3058.6243   
    QMUNI1 ZMUNI5_PCT  -180.0537  
    QMUNI1 ZMUNI6_PCT 38.5284     
    QMUNI1 ZMUNI7_PCT 1746.7499   
    QMUNI1 ZMUNI8_PCT 1415.4434   
    QMUNI1 ZMUNI9_PCT 603.1036    
    QMUNI2 OBJROW 1.          
    QMUNI2 ZMUNI1_PCT 1561.3556   
    QMUNI2 ZMUNI2_PCT 35139.8468  
    QMUNI2 ZMUNI3_PCT 2395.0577   
    QMUNI2 ZMUNI4_PCT 2571.4874   
    QMUNI2 ZMUNI5_PCT  -434.8755  
    QMUNI2 ZMUNI6_PCT  -321.579   
    QMUNI2 ZMUNI7_PCT 765.6097    
    QMUNI2 ZMUNI8_PCT 1096.9162   
    QMUNI2 ZMUNI9_PCT 1076.889    
    QMUNI3 OBJROW 1.          
    QMUNI3 ZMUNI1_PCT 4182.0526   
    QMUNI3 ZMUNI2_PCT 2702.3316   
    QMUNI3 ZMUNI3_PCT 31065.5594  
    QMUNI3 ZMUNI4_PCT 5134.0103   
    QMUNI3 ZMUNI5_PCT 18.3106     
    QMUNI3 ZMUNI6_PCT 170.7077    
    QMUNI3 ZMUNI7_PCT 1686.4777   
    QMUNI3 ZMUNI8_PCT 1633.4533   
    QMUNI3 ZMUNI9_PCT 1008.2245   
    QMUNI4 OBJROW 1.          
    QMUNI4 ZMUNI1_PCT 3064.1556   
    QMUNI4 ZMUNI2_PCT 2760.8872   
    QMUNI4 ZMUNI3_PCT 5233.1925   
    QMUNI4 ZMUNI4_PCT 109755.5161 
    QMUNI4 ZMUNI5_PCT  -346.756   
    QMUNI4 ZMUNI6_PCT  -187.6832  
    QMUNI4 ZMUNI7_PCT 822.0673    
    QMUNI4 ZMUNI8_PCT 785.2554    
    QMUNI4 ZMUNI9_PCT 128.1738    
    QMUNI5 OBJROW 1.          
    QMUNI5 ZMUNI1_PCT 228.1189    
    QMUNI5 ZMUNI2_PCT 152.0157    
    QMUNI5 ZMUNI3_PCT 186.1572    
    QMUNI5 ZMUNI4_PCT 159.4544    
    QMUNI5 ZMUNI5_PCT 36720.0852  
    QMUNI5 ZMUNI6_PCT 2650.6424   
    QMUNI5 ZMUNI7_PCT 336.8378    
    QMUNI5 ZMUNI8_PCT 261.116     
    QMUNI5 ZMUNI9_PCT 314.5218    
    QMUNI6 OBJROW 1.          
    QMUNI6 ZMUNI1_PCT 147.2473    
    QMUNI6 ZMUNI2_PCT 30.8991     
    QMUNI6 ZMUNI3_PCT 90.2176     
    QMUNI6 ZMUNI4_PCT 55.8853     
    QMUNI6 ZMUNI5_PCT 2406.6925   
    QMUNI6 ZMUNI6_PCT 33293.3425  
    QMUNI6 ZMUNI7_PCT 202.179     
    QMUNI6 ZMUNI8_PCT 44.6319     
    QMUNI6 ZMUNI9_PCT 14.4959     
    QMUNI7 OBJROW 1.          
    QMUNI7 ZMUNI1_PCT 1253.1281   
    QMUNI7 ZMUNI2_PCT 679.2069    
    QMUNI7 ZMUNI3_PCT 1083.1833   
    QMUNI7 ZMUNI4_PCT 804.9011    
    QMUNI7 ZMUNI5_PCT 10.2997     
    QMUNI7 ZMUNI6_PCT 215.5304    
    QMUNI7 ZMUNI7_PCT 32401.2756  
    QMUNI7 ZMUNI8_PCT 2260.7803   
    QMUNI7 ZMUNI9_PCT 563.6215    
    QMUNI8 OBJROW 1.          
    QMUNI8 ZMUNI1_PCT 1074.6002   
    QMUNI8 ZMUNI2_PCT 970.0776    
    QMUNI8 ZMUNI3_PCT 1113.5101   
    QMUNI8 ZMUNI4_PCT 901.9852    
    QMUNI8 ZMUNI5_PCT  -166.7023  
    QMUNI8 ZMUNI6_PCT  -24.6048   
    QMUNI8 ZMUNI7_PCT 2275.8484   
    QMUNI8 ZMUNI8_PCT 29820.2514  
    QMUNI8 ZMUNI9_PCT 1241.8747   
    QMUNI9 OBJROW 1.          
    QMUNI9 ZMUNI1_PCT 340.6525    
    QMUNI9 ZMUNI2_PCT 704.3839    
    QMUNI9 ZMUNI3_PCT 444.4122    
    QMUNI9 ZMUNI4_PCT 400.1618    
    QMUNI9 ZMUNI5_PCT  -384.5215  
    QMUNI9 ZMUNI6_PCT  -290.2985  
    QMUNI9 ZMUNI7_PCT 358.5815    
    QMUNI9 ZMUNI8_PCT 948.5244    
    QMUNI9 ZMUNI9_PCT 28567.5049  
RHS
    RHS ZMUNI1_PCT -0.055991249
    RHS ZMUNI2_PCT 0.02931472  
    RHS ZMUNI3_PCT -0.020461216
    RHS ZMUNI4_PCT 0.0518015195
    RHS ZMUNI5_PCT 0.0090002451
    RHS ZMUNI6_PCT -0.053369531
    RHS ZMUNI7_PCT 0.0499691852
    RHS ZMUNI8_PCT 0.0887198165
    RHS ZMUNI9_PCT 0.2118305911
BOUNDS
 LO BOUND QMUNI1 -0.000689973
 UP BOUND QMUNI1      1.1e+10
 LO BOUND QMUNI2 -0.000484858
 UP BOUND QMUNI2      1.1e+10
 LO BOUND QMUNI3 -0.00055507 
 UP BOUND QMUNI3      1.1e+10
 LO BOUND QMUNI4 -0.000206984
 UP BOUND QMUNI4      1.1e+10
 LO BOUND QMUNI5 -0.000347071
 UP BOUND QMUNI5      1.1e+10
 LO BOUND QMUNI6 -0.000495482
 UP BOUND QMUNI6      1.1e+10
 LO BOUND QMUNI7 -0.000185871
 UP BOUND QMUNI7      1.1e+10
 LO BOUND QMUNI8 -0.000293292
 UP BOUND QMUNI8      1.1e+10
 LO BOUND QMUNI9 -0.000293121
 UP BOUND QMUNI9      1.1e+10
ENDATA
